%SETS
JOBS     = 1..10;
MACHINES = 1..5;
SPEED    = 1;

time        = array3d(JOBS,MACHINES,1..SPEED,[1, 1, 2, 3, 4, 3, 7, 1, 13, 1, 7, 3, 5, 1, 1, 10, 21, 2, 7, 13, 14, 1, 1, 1, 13, 1, 3, 20, 4, 7, 2, 7, 11, 1, 8, 28, 8, 2, 9, 1, 3, 15, 2, 2, 1, 1, 7, 1, 1, 4]);
energy      = array3d(JOBS,MACHINES,1..SPEED,[99, 99, 98, 97, 96, 97, 93, 99, 87, 99, 93, 97, 95, 99, 99, 90, 81, 98, 93, 87, 86, 99, 99, 99, 87, 99, 97, 81, 96, 93, 98, 93, 89, 99, 92, 75, 92, 98, 91, 99, 97, 86, 98, 98, 99, 99, 93, 99, 99, 96]);
precedence  = array2d(JOBS,MACHINES,[2, 4, 1, 0, 3, 1, 2, 0, 4, 3, 3, 4, 1, 2, 0, 3, 0, 1, 2, 4, 1, 0, 2, 3, 4, 2, 4, 3, 1, 0, 4, 2, 0, 3, 1, 3, 1, 2, 0, 4, 2, 3, 0, 1, 4, 4, 1, 2, 0, 3]);
releaseDate = [70, 90, 70, 30, 100, 0, 80, 70, 70, 10];
dueDate     = [85, 106, 87, 89, 136, 61, 136, 130, 93, 35];